certificates/rado_a11_c259_N38.cnf
c Rad2 upper bound instance: x1 + 11*x2 - x3 = 259, interval [1,38]
p cnf 38 256
1 6 24 0
-1 -6 -24 0
1 17 25 0
-1 -17 -25 0
1 26 28 0
-1 -26 -28 0
2 7 24 0
-2 -7 -24 0
2 18 25 0
-2 -18 -25 0
2 26 29 0
-2 -26 -29 0
3 8 24 0
-3 -8 -24 0
3 19 25 0
-3 -19 -25 0
3 26 30 0
-3 -26 -30 0
4 9 24 0
-4 -9 -24 0
4 20 25 0
-4 -20 -25 0
4 26 31 0
-4 -26 -31 0
5 10 24 0
-5 -10 -24 0
5 21 25 0
-5 -21 -25 0
5 26 32 0
-5 -26 -32 0
6 11 24 0
-6 -11 -24 0
6 22 25 0
-6 -22 -25 0
6 26 33 0
-6 -26 -33 0
1 7 23 0
-1 -7 -23 0
7 12 24 0
-7 -12 -24 0
7 23 25 0
-7 -23 -25 0
7 26 34 0
-7 -26 -34 0
2 8 23 0
-2 -8 -23 0
8 13 24 0
-8 -13 -24 0
8 24 25 0
-8 -24 -25 0
8 26 35 0
-8 -26 -35 0
3 9 23 0
-3 -9 -23 0
9 14 24 0
-9 -14 -24 0
9 25 0
-9 -25 0
9 26 36 0
-9 -26 -36 0
4 10 23 0
-4 -10 -23 0
10 15 24 0
-10 -15 -24 0
10 25 26 0
-10 -25 -26 0
10 26 37 0
-10 -26 -37 0
5 11 23 0
-5 -11 -23 0
11 16 24 0
-11 -16 -24 0
11 25 27 0
-11 -25 -27 0
11 26 38 0
-11 -26 -38 0
6 12 23 0
-6 -12 -23 0
12 17 24 0
-12 -17 -24 0
12 25 28 0
-12 -25 -28 0
7 13 23 0
-7 -13 -23 0
13 18 24 0
-13 -18 -24 0
13 25 29 0
-13 -25 -29 0
8 14 23 0
-8 -14 -23 0
14 19 24 0
-14 -19 -24 0
14 25 30 0
-14 -25 -30 0
9 15 23 0
-9 -15 -23 0
15 20 24 0
-15 -20 -24 0
15 25 31 0
-15 -25 -31 0
10 16 23 0
-10 -16 -23 0
16 21 24 0
-16 -21 -24 0
16 25 32 0
-16 -25 -32 0
11 17 23 0
-11 -17 -23 0
17 22 24 0
-17 -22 -24 0
17 25 33 0
-17 -25 -33 0
1 18 22 0
-1 -18 -22 0
12 18 23 0
-12 -18 -23 0
18 23 24 0
-18 -23 -24 0
18 25 34 0
-18 -25 -34 0
2 19 22 0
-2 -19 -22 0
13 19 23 0
-13 -19 -23 0
19 24 0
-19 -24 0
19 25 35 0
-19 -25 -35 0
3 20 22 0
-3 -20 -22 0
14 20 23 0
-14 -20 -23 0
20 24 25 0
-20 -24 -25 0
20 25 36 0
-20 -25 -36 0
4 21 22 0
-4 -21 -22 0
15 21 23 0
-15 -21 -23 0
21 24 26 0
-21 -24 -26 0
21 25 37 0
-21 -25 -37 0
5 22 0
-5 -22 0
16 22 23 0
-16 -22 -23 0
22 24 27 0
-22 -24 -27 0
22 25 38 0
-22 -25 -38 0
6 22 23 0
-6 -22 -23 0
17 23 0
-17 -23 0
23 24 28 0
-23 -24 -28 0
7 22 24 0
-7 -22 -24 0
24 29 0
-24 -29 0
8 22 25 0
-8 -22 -25 0
19 23 25 0
-19 -23 -25 0
24 25 30 0
-24 -25 -30 0
9 22 26 0
-9 -22 -26 0
20 23 26 0
-20 -23 -26 0
24 26 31 0
-24 -26 -31 0
10 22 27 0
-10 -22 -27 0
21 23 27 0
-21 -23 -27 0
24 27 32 0
-24 -27 -32 0
11 22 28 0
-11 -22 -28 0
22 23 28 0
-22 -23 -28 0
24 28 33 0
-24 -28 -33 0
1 21 29 0
-1 -21 -29 0
12 22 29 0
-12 -22 -29 0
23 29 0
-23 -29 0
24 29 34 0
-24 -29 -34 0
2 21 30 0
-2 -21 -30 0
13 22 30 0
-13 -22 -30 0
23 24 30 0
-23 -24 -30 0
24 30 35 0
-24 -30 -35 0
3 21 31 0
-3 -21 -31 0
14 22 31 0
-14 -22 -31 0
23 25 31 0
-23 -25 -31 0
24 31 36 0
-24 -31 -36 0
4 21 32 0
-4 -21 -32 0
15 22 32 0
-15 -22 -32 0
23 26 32 0
-23 -26 -32 0
24 32 37 0
-24 -32 -37 0
5 21 33 0
-5 -21 -33 0
16 22 33 0
-16 -22 -33 0
23 27 33 0
-23 -27 -33 0
24 33 38 0
-24 -33 -38 0
6 21 34 0
-6 -21 -34 0
17 22 34 0
-17 -22 -34 0
23 28 34 0
-23 -28 -34 0
7 21 35 0
-7 -21 -35 0
18 22 35 0
-18 -22 -35 0
23 29 35 0
-23 -29 -35 0
8 21 36 0
-8 -21 -36 0
19 22 36 0
-19 -22 -36 0
23 30 36 0
-23 -30 -36 0
9 21 37 0
-9 -21 -37 0
20 22 37 0
-20 -22 -37 0
23 31 37 0
-23 -31 -37 0
10 21 38 0
-10 -21 -38 0
21 22 38 0
-21 -22 -38 0
23 32 38 0
-23 -32 -38 0
