certificates/rado_a11_c259_N38.drat
24 -35 -36 -37 0
-24 -38 0
-26 -36 24 0
-36 -37 24 0
d -35 -36 24 -37 0
26 -37 24 0
-37 24 0
d 26 -37 24 0
d -36 -37 24 0
-26 -38 0
-38 0
23 -11 0
26 0
-23 0
17 0
29 0
32 0
-11 0
-24 0
-2 0
-5 0
6 0
0
